40
    90    86    18    19    47    73    33    12    53    61    96    20     1    29    51    86    12     9    23    55    37    85    12    77    52    95    98     3    65    31    38    89     9    36    68    93    45     9     1    77
     2     1     1     2     3     7     4     7     4     5     2     4     9     7     5     8     1     4     5     2     9     3     9     2     3     5     5     4     9     8     7     6     5     6    10     4     4     9     5    10
  1747  2082  2255  1152  1211  1532   819   880  2087   890   916  2090  1131  1782  1415  2247  1650  2229  2271  1521  1258  2268  1744  1983  1566  1261  1928  1502  1991  2006  1416  2025  1878  1992   840  1960  1881  2049  1593  1427
